NAME: qa194
COMMENT: Quick (5min) local search tour for qa194 (10316.550735217303)
TYPE: TOUR
DIMENSION: 194
TOUR_SECTION: 1 6 8 16 13 11 7 17 14 23 71 25 26 24 21 18 33 28 29 22 27 61 67 73 66 68 64 70 77 84 100 110 112 115 116 117 121 120 128 124 123 133 135 129 131 118 122 119 109 113 114 126 125 127 132 134 137 140 145 149 146 142 138 139 141 144 154 157 150 153 152 147 151 136 143 148 155 160 166 171 162 158 159 165 168 167 170 178 180 185 193 188 191 192 189 184 181 177 175 173 174 183 186 187 190 194 182 176 179 172 169 164 163 161 156 130 89 101 104 111 99 94 90 98 86 85 65 20 63 36 59 62 82 80 87 76 75 78 91 102 103 106 105 107 108 97 96 93 95 92 88 83 81 79 72 74 69 60 57 45 37 47 51 58 56 53 52 48 41 38 46 43 40 39 34 31 32 30 35 42 44 49 55 54 50 19 15 12 10 9 5 3 2 4 -1
EOF